; query 1
; 
(set-info :status unknown)
(declare-fun R_OF_15_213 () Bool)
(declare-fun t_457 () Bool)
(declare-fun t_456 () Bool)
(declare-fun t_455 () Bool)
(declare-fun t_495 () Bool)
(declare-fun t_470 () Bool)
(declare-fun t_450 () Bool)
(declare-fun t_451 () Bool)
(declare-fun t_452 () Bool)
(declare-fun R_ESP_1_69 () (_ BitVec 32))
(declare-fun T_32t2_3421_174 () (_ BitVec 32))
(declare-fun t_453 () Bool)
(declare-fun t_454 () Bool)
(declare-fun T_32t0_3413_180 () (_ BitVec 32))
(declare-fun t_458 () Bool)
(declare-fun t_459 () Bool)
(declare-fun t_460 () Bool)
(declare-fun t_461 () Bool)
(declare-fun t_462 () Bool)
(declare-fun t_463 () Bool)
(declare-fun t_464 () Bool)
(declare-fun t_465 () Bool)
(declare-fun t_466 () Bool)
(declare-fun t_467 () Bool)
(declare-fun t_468 () Bool)
(declare-fun t_469 () Bool)
(declare-fun t_471 () Bool)
(declare-fun t_472 () Bool)
(declare-fun t_473 () Bool)
(declare-fun t_474 () Bool)
(declare-fun t_475 () Bool)
(declare-fun t_476 () Bool)
(declare-fun t_477 () Bool)
(declare-fun t_478 () Bool)
(declare-fun t_479 () Bool)
(declare-fun t_480 () Bool)
(declare-fun t_481 () Bool)
(declare-fun t_482 () Bool)
(declare-fun t_483 () Bool)
(declare-fun t_484 () Bool)
(declare-fun t_485 () Bool)
(declare-fun t_486 () Bool)
(declare-fun t_487 () Bool)
(declare-fun t_488 () Bool)
(declare-fun t_489 () Bool)
(declare-fun t_490 () Bool)
(declare-fun t_491 () Bool)
(declare-fun t_492 () Bool)
(declare-fun t_493 () Bool)
(declare-fun t_494 () Bool)
(declare-fun t_496 () Bool)
(declare-fun t_497 () Bool)
(declare-fun t_498 () Bool)
(assert
 (let (($x269 (not (or (and t_470 t_495) (and t_455 t_456 t_457 R_OF_15_213)))))
 (let (($x172 (= t_451 t_450)))
 (let (($x170 (= t_452 t_451)))
 (let (($x266 (= t_453 (= T_32t2_3421_174 (bvadd (_ bv4294967292 32) R_ESP_1_69)))))
 (let (($x163 (= t_454 (and t_452 t_453))))
 (let (($x160 (= t_455 t_454)))
 (let (($x260 (= t_456 (= T_32t0_3413_180 (bvadd (_ bv4294967236 32) T_32t2_3421_174)))))
 (let (($x246 (= ((_ extract 31 31) T_32t0_3413_180) (_ bv1 1))))
 (let ((?x219 ((_ extract 31 31) T_32t2_3421_174)))
 (let (($x243 (= ?x219 (_ bv0 1))))
 (let (($x188 (= t_458 (not R_OF_15_213))))
 (let (($x186 (= t_459 (and t_455 t_456 t_457 t_458))))
 (let (($x135 (= t_460 t_459)))
 (let (($x133 (= t_461 t_460)))
 (let (($x131 (= t_462 t_461)))
 (let (($x129 (= t_463 t_462)))
 (let (($x127 (= t_464 t_463)))
 (let (($x125 (= t_465 t_464)))
 (let (($x123 (= t_466 t_465)))
 (let (($x120 (= t_468 (and t_466 t_467))))
 (let (($x117 (= t_469 t_468)))
 (let (($x115 (= t_470 t_469)))
 (let (($x184 (not t_471)))
 (let (($x110 (= t_473 t_472)))
 (let (($x108 (= t_474 t_473)))
 (let (($x106 (= t_475 t_474)))
 (let (($x104 (= t_476 t_475)))
 (let (($x102 (= t_477 t_476)))
 (let (($x100 (= t_478 t_477)))
 (let (($x98 (= t_479 t_478)))
 (let (($x96 (= t_480 t_479)))
 (let (($x94 (= t_481 t_480)))
 (let (($x92 (= t_482 t_481)))
 (let (($x90 (= t_483 t_482)))
 (let (($x88 (= t_484 t_483)))
 (let (($x86 (= t_485 t_484)))
 (let (($x84 (= t_486 t_485)))
 (let (($x82 (= t_487 t_486)))
 (let (($x80 (= t_488 t_487)))
 (let (($x78 (= t_489 t_488)))
 (let (($x76 (= t_490 t_489)))
 (let (($x74 (= t_491 t_490)))
 (let (($x72 (= t_492 t_491)))
 (let (($x70 (= t_493 t_492)))
 (let (($x68 (= t_494 t_493)))
 (let (($x183 (not t_496)))
 (let (($x63 (= t_497 (and t_470 (or (and t_471 t_494) (and t_495 t_496))))))
 (let (($x58 (= t_498 t_497)))
 (and $x58 $x63 $x183 t_495 $x68 $x70 $x72 $x74 $x76 $x78 $x80 $x82 $x84 $x86 $x88 $x90 $x92 $x94 $x96 $x98 $x100 $x102 $x104 $x106 $x108 $x110 t_472 $x184 $x115 $x117 $x120 t_467 $x123 $x125 $x127 $x129 $x131 $x133 $x135 $x186 $x188 (= t_457 (= R_OF_15_213 (not (or $x243 (= (= ?x219 (_ bv1 1)) $x246))))) $x260 $x160 $x163 $x266 $x170 $x172 t_450 $x269))))))))))))))))))))))))))))))))))))))))))))))))))
(check-sat)
